10	5
0	4	1	3	2	4
1	1	8
2	1	6
3	1	7
4	1	9
5	1	10
6	2	9	5
7	1	11
8	1	11
9	1	11
10	1	11
11	0
0	0	0	0	0	0	0
1	2	0	0	4	3	1
2	3	0	0	0	1	4
3	1	0	0	0	2	0
4	6	2	3	4	1	0
5	9	0	5	2	2	0
6	2	0	0	0	0	4
7	1	0	3	3	5	0
8	1	0	3	1	0	0
9	8	0	0	4	3	0
10	8	1	0	3	2	2
11	0	0	0	0	0	0
2	6	8	9	5
